CMPL model generation - running

CMPL version: 1.11.0
Authors: Thomas Schleiff, Mike Steglich
Distributed under the GPLv3 

create model instance ...
write model instance ...
CMPL model generation - finished

Solver - running


Welcome to IBM(R) ILOG(R) CPLEX(R) Interactive Optimizer 12.7.1.0
  with Simplex, Mixed Integer & Barrier Optimizers
5725-A06 5725-A29 5724-Y48 5724-Y49 5724-Y54 5724-Y55 5655-Y21
Copyright IBM Corp. 1988, 2017.  All Rights Reserved.

Type 'help' for a list of available commands.
Type 'help' followed by a command name for more
information on commands.

CPLEX> Specified objective sense: MINIMIZE
Selected objective  name:  line[1]
Selected RHS        name:  RHS
Selected bound      name:  BOUND
Problem '/tmp/cmpl.T24495.mps' read.
Read time = 0.08 sec. (10.13 ticks)
CPLEX> CPXPARAM_Read_APIEncoding                        "UTF-8"
Tried aggregator 3 times.
MIP Presolve eliminated 23891 rows and 37355 columns.
MIP Presolve modified 425 coefficients.
Aggregator did 855 substitutions.
Reduced MIP has 3176 rows, 4245 columns, and 12555 nonzeros.
Reduced MIP has 4035 binaries, 0 generals, 0 SOSs, and 0 indicators.
Presolve time = 0.08 sec. (50.53 ticks)
Found incumbent of value 1822.755873 after 0.17 sec. (84.92 ticks)
Probing fixed 22 vars, tightened 0 bounds.
Probing time = 0.02 sec. (5.53 ticks)
Tried aggregator 1 time.
MIP Presolve eliminated 0 rows and 22 columns.
MIP Presolve modified 136 coefficients.
Reduced MIP has 3176 rows, 4223 columns, and 12511 nonzeros.
Reduced MIP has 4223 binaries, 0 generals, 0 SOSs, and 0 indicators.
Presolve time = 0.02 sec. (10.65 ticks)
Probing time = 0.01 sec. (2.87 ticks)
Clique table members: 7703.
MIP emphasis: balance optimality and feasibility.
MIP search method: dynamic search.
Parallel mode: none, using 1 thread.
Root relaxation solution time = 0.02 sec. (8.62 ticks)

        Nodes                                         Cuts/
   Node  Left     Objective  IInf  Best Integer    Best Bound    ItCnt     Gap

*     0+    0                         1822.7559       -6.0659           100.33%
      0     0      415.5268     1     1822.7559      415.5268      355   77.20%
*     0+    0                          415.5496      415.5268             0.01%

Root node processing (before b&c):
  Real time             =    0.26 sec. (129.31 ticks)
Sequential b&c:
  Real time             =    0.00 sec. (0.00 ticks)
                          ------------
Total (root+branch&cut) =    0.26 sec. (129.31 ticks)

Solution pool: 2 solutions saved.

MIP - Integer optimal, tolerance (0.0001/1e-06):  Objective =  4.1554961600e+02
Current MIP best bound =  4.1552675900e+02 (gap = 0.022857, 0.01%)
Solution time =    0.26 sec.  Iterations = 355  Nodes = 0 (1)
Deterministic time = 129.43 ticks  (488.48 ticks/sec)

CPLEX> Incumbent solution written to file '/tmp/cmpl.T24495.gsol'.
CPLEX> 
CMPL: Time used for model generation: 1 seconds
CMPL: Time used for solving the model: 2 seconds


Solution written to ASCII file: results/output_generated_conf_0.7/2017-05-01-5/fair-nonlinear.sol

Solver - finished
